SimulationType     MonteCarlo
NumberofCycles     1
PrintEvery     1

Framework      0
FrameworkName      Cd3BTB2
UnitCells      2 2 2
