SimulationType     MonteCarlo
NumberofCycles     1
PrintEvery     1

Framework      0
FrameworkName      HUIO-66
UnitCells      2 2 2
