SimulationType     MonteCarlo
NumberofCycles     1
PrintEvery     1

Framework      0
FrameworkName      HKUST-1
UnitCells      2 2 2
